Solving original (integer) problem with strategy gdp.hull...
--- Job model.gms Start 02/14/26 17:30:06 52.2.0 d8e408be LEX-LEG x86 64bit/Linux
--- Applying:
    /package/gams/52.2/gmsprmun.txt
--- GAMS Parameters defined
    Input /local/scratch/a/sgusev/repos/k_means/data/gams_gurobi_gdp.hull/no_mode/2026-02-14_17-30-06/original/model.gms
    Output /local/scratch/a/sgusev/repos/k_means/data/gams_gurobi_gdp.hull/no_mode/2026-02-14_17-30-06/original/output.lst
    ScrDir /local/scratch/a/sgusev/repos/k_means/data/gams_gurobi_gdp.hull/no_mode/2026-02-14_17-30-06/original/225a/
    SysDir /package/gams/52.2/
    CurDir /local/scratch/a/sgusev/repos/k_means/data/gams_gurobi_gdp.hull/no_mode/2026-02-14_17-30-06/original/
    LogOption 3
    AppendLog 1
Licensee: David Bernal / SECQUOIA Research Group         G251008+0003Ac-GEN
          Purdue University, Davidson School of Chemical EngineeringDCE4838
          225a/gamslice.dat
          5a82958a-fbca-4a23
          node:66820903 mem:995 cores:48 ipport:46267 v:2                  
          Evaluation license: Not for commercial or production use
          The time-limited license stops working on : Jun 30, 2027
System information: 48 physical cores and 995 Gb physical memory detected
GAMS 52.2.0   Copyright (C) 1987-2025 GAMS Development. All rights reserved
--- Starting compilation
--- model.gms(2005) 2 Mb
--- $echo File /local/scratch/a/sgusev/repos/k_means/data/gams_gurobi_gdp.hull/no_mode/2026-02-14_17-30-06/original/gurobi.opt
--- model.gms(2984) 2 Mb
--- Starting execution: elapsed 0:00:00.013
--- model.gms(2014) 3 Mb
--- Generating MINLP model GAMS_MODEL
--- model.gms(2018) 5 Mb
---   604 rows  309 columns  1,471 non-zeroes
---   1,488 nl-code  192 nl-non-zeroes
---   48 discrete-columns
--- Range statistics (absolute non-zero finite values)
--- RHS       [min, max] : [ 6.188E-06, 1.000E+00] - Zero values observed as well
--- Bound     [min, max] : [ 1.000E+00, 4.800E+01] - Zero values observed as well
--- Matrix    [min, max] : [ 5.956E-02, 4.800E+01]
--- model.gms(2018) 3 Mb
--- Executing GUROBI (Solvelink=5): elapsed 0:00:00.018
Reading parameter(s) from "/local/scratch/a/sgusev/repos/k_means/data/gams_gurobi_gdp.hull/no_mode/2026-02-14_17-30-06/original/gurobi.opt"
>>  NonConvex 2
>>  Threads 1
>>  MIPGap 1e-06
>>  MIPGapAbs 1e-10
>>  FeasibilityTol 1e-06
>>  OptimalityTol 1e-06
>>  IntFeasTol 1e-05
Finished reading from "/local/scratch/a/sgusev/repos/k_means/data/gams_gurobi_gdp.hull/no_mode/2026-02-14_17-30-06/original/gurobi.opt"

... GRB_LICENSE_FILE = /local/scratch/a/sgusev/gurobi.lic

    Gurobi           52.2.0 d8e408be Dec 8, 2025           LEG x86 64bit/Linux    

... GAMS/Gurobi Link license.
... GMO Q Extraction (ThreePass): 0.00s

    Gurobi Optimizer version 13.0.0 build v13.0.0rc1 (linux64 - "Oracle Linux Server 9.7")
    
    CPU model: AMD EPYC 7643 48-Core Processor, instruction set [SSE2|AVX|AVX2]
    Thread count: 48 physical cores, 96 logical processors, using up to 1 threads
    
    Non-default parameters:
    TimeLimit  300
    MIPGap  1e-06
    LogToConsole  0
    NonConvex  2
    Threads  1
    
    Optimize a model with 603 rows, 356 columns and 1314 nonzeros (Min)
    Model fingerprint: 0x25d0d10f
    Model has 12 linear objective coefficients
    Model has 48 general nonlinear constraints (288 nonlinear terms)
    Variable types: 308 continuous, 48 integer (0 binary)
    Coefficient statistics:
      Matrix range     [1e+00, 5e+01]
      Objective range  [1e+00, 1e+00]
      Bounds range     [1e+00, 5e+01]
      RHS range        [1e+00, 1e+00]
      NLCon coe range  [6e-06, 1e+00]
    Presolve model has 48 nlconstr
    Added 624 variables to disaggregate expressions
    Presolve removed 144 rows and 108 columns
    Presolve time: 0.00s
    Presolved: 1899 rows, 873 columns, 4854 nonzeros
    Presolved model has 288 bilinear constraint(s)
    
    Solving non-convex MIQCP to global optimality
    
    Variable types: 825 continuous, 48 integer (48 binary)
    Found heuristic solution: objective 6.9885710
    
    Root relaxation: objective 0.000000e+00, 280 iterations, 0.00 seconds (0.00 work units)
    
        Nodes    |    Current Node    |     Objective Bounds      |     Work
     Expl Unexpl |  Obj  Depth IntInf | Incumbent    BestBd   Gap | It/Node Time
    
         0     0    0.00000    0  144    6.98857    0.00000   100%     -    0s
         0     0    0.00000    0  152    6.98857    0.00000   100%     -    0s
         0     0    0.00000    0  137    6.98857    0.00000   100%     -    0s
         0     0    0.00000    0  118    6.98857    0.00000   100%     -    0s
         0     0    0.00000    0  118    6.98857    0.00000   100%     -    0s
         0     0    0.00000    0   74    6.98857    0.00000   100%     -    0s
         0     0    0.00000    0   84    6.98857    0.00000   100%     -    0s
         0     0    0.00000    0  128    6.98857    0.00000   100%     -    0s
         0     0    0.00000    0  128    6.98857    0.00000   100%     -    0s
         0     0    0.00000    0   81    6.98857    0.00000   100%     -    0s
         0     0    0.00000    0   70    6.98857    0.00000   100%     -    0s
         0     0    0.00000    0  104    6.98857    0.00000   100%     -    0s
         0     0    0.00000    0  104    6.98857    0.00000   100%     -    0s
         0     0    0.00000    0   73    6.98857    0.00000   100%     -    0s
         0     0    0.00000    0   73    6.98857    0.00000   100%     -    0s
         0     0    0.00000    0   61    6.98857    0.00000   100%     -    0s
    H    0     0                       2.6140399    0.00000   100%     -    0s
    H    0     0                       2.0540218    0.00000   100%     -    0s
         0     2    0.00000    0   61    2.05402    0.00000   100%     -    0s
    H    1     1                       2.0540218    0.00000   100%   2.0    0s
    H   20    20                       1.9767767    0.00000   100%  11.1    0s
    H   88    56                       1.2090927    0.00000   100%  13.6    0s
    H  992   362                       1.1897060    0.00000   100%  19.5    2s
    H  994   344                       1.0979893    0.00000   100%  19.5    2s
    H  994   327                       1.0978980    0.00000   100%  19.5    2s
    H  997   313                       1.0978980    0.00000   100%  19.6    2s
    H 1026   294                       1.0785258    0.00000   100%  19.5    2s
    H 1026   279                       1.0670376    0.00000   100%  19.5    2s
    H 1026   265                       1.0665824    0.00000   100%  19.5    2s
    H 1026   252                       1.0665708    0.00000   100%  19.5    2s
    H 1026   239                       1.0652195    0.00000   100%  19.5    2s
    H 1026   227                       1.0650521    0.00000   100%  19.5    2s
    H 1411   327                       0.9484652    0.00000   100%  16.6    2s
      4391   715 infeasible   62         0.94847    0.59502  37.3%  11.9    5s
     13079  1062    0.91603   66   18    0.94847    0.82510  13.0%   7.1   10s
    *15950  1016             110       0.9484628    0.88349  6.85%   6.4   11s
    H15951  1015                       0.9484623    0.88349  6.85%   6.4   11s
     22476   898    0.94797   80   14    0.94846    0.94149  0.73%   5.2   15s
    *23623  1055             107       0.9484599    0.94337  0.54%   5.1   15s
     32732  2424     cutoff   85         0.94846    0.94642  0.21%   4.1   21s
     41505  3059    0.94763   86    2    0.94846    0.94692  0.16%   3.5   25s
     52583  2915    0.94824   89   12    0.94846    0.94757  0.09%   3.1   30s
     63568  1928    0.94844  104    5    0.94846    0.94817  0.03%   2.7   35s
    *64976  1844             117       0.9484579    0.94822  0.03%   2.7   35s
     72896  1521    0.94845  100    8    0.94846    0.94836  0.01%   2.5   40s
     83833   253     cutoff  109         0.94846    0.94844  0.00%   2.4   45s
    
    Cutting planes:
      Learned: 45
      Gomory: 3
      Implied bound: 20
      Projected implied bound: 1
      MIR: 5
      Flow cover: 28
      RLT: 18
      Relax-and-lift: 11
    
    Explored 84342 nodes (199831 simplex iterations) in 45.24 seconds (34.00 work units)
    Thread count was 1 (of 96 available processors)
    
    Solution count 10: 0.948458 0.948458 0.94846 ... 1.06658
    
    Optimal solution found (tolerance 1.00e-06)
    Warning: max constraint violation (1.8593e-06) exceeds tolerance
    Warning: max general constraint violation (1.8593e-06) exceeds tolerance
    Best objective 9.484578742957e-01, best bound 9.484571429348e-01, gap 0.0001%
    
    User-callback calls 84366, time in user-callback 0.00 sec

... Solving fixed model...

    Gurobi Optimizer version 13.0.0 build v13.0.0rc1 (linux64 - "Oracle Linux Server 9.7")
    
    CPU model: AMD EPYC 7643 48-Core Processor, instruction set [SSE2|AVX|AVX2]
    Thread count: 48 physical cores, 96 logical processors, using up to 1 threads
    
    Non-default parameters:
    TimeLimit  300
    MIPGap  1e-06
    LogToConsole  0
    NonConvex  2
    Threads  1
    
    Optimize a model with 603 rows, 356 columns and 1314 nonzeros (Min)
    Model fingerprint: 0x12d057ec
    Model has 12 linear objective coefficients
    Coefficient statistics:
      Matrix range     [1e+00, 5e+01]
      Objective range  [1e+00, 1e+00]
      Bounds range     [1e-02, 5e+01]
      RHS range        [1e+00, 1e+00]
    Presolve removed 603 rows and 356 columns
    Presolve time: 0.00s
    Presolve: All rows and columns removed
    Iteration    Objective       Primal Inf.    Dual Inf.      Time
           0    9.4845787e-01   0.000000e+00   0.000000e+00      0s
    
    Solved in 0 iterations and 0.00 seconds (0.00 work units)
    Optimal objective  9.484578743e-01
    
    User-callback calls 0, time in user-callback 0.00 sec

--- Reading solution for model GAMS_MODEL
***
*** Solver did not provide marginals for model GAMS_MODEL
***
--- Executing after solve: elapsed 0:00:45.290
--- model.gms(2021) 3 Mb
--- model.gms(2984) 5 Mb
--- Putfile results /local/scratch/a/sgusev/repos/k_means/data/gams_gurobi_gdp.hull/no_mode/2026-02-14_17-30-06/original/results.dat
--- Putfile statresults /local/scratch/a/sgusev/repos/k_means/data/gams_gurobi_gdp.hull/no_mode/2026-02-14_17-30-06/original/resultsstat.dat
*** Status: Normal completion
--- Job model.gms Stop 02/14/26 17:30:52 elapsed 0:00:45.292
Original problem solved. Time taken: 45.87622261047363 seconds
Original objective value: 0.948457874297402
